5 5
2 8 1 15 4 83 0 59 3 11
0 20 2 55 3 36 4 82 1 14
2 58 1 38 3 89 0 80 4 82
4 1 0 65 3 1 1 85 2 60
0 25 4 91 2 10 1 50 3 12
-1
0 1 3 4 5
0 1 4 5
0 4 5
0 2 5
0 2 4 5
-2
12 161 182 203
24 207 224
385 521
94 289
153 210 267

385 8
20 16 5 13 3
11 1 23 18 9
10 0 22 6 19
17 12 7 24 4
15 21 2 8 14
